c width = 2, time = 0.000035
s td 20 3 22
b 1 3 4 5
b 2 3 5 6
b 3 3 6 7
b 4 3 7 8
b 5 3 8 9
b 6 3 9 10
b 7 3 10 11
b 8 3 11 12
b 9 3 12 18
b 10 3 18 19
b 11 3 19 20
b 12 3 20 21
b 13 3 21 22
b 14 21 14
b 15 14 15
b 16 18 17
b 17 17 16
b 18 16 13
b 19 13 2
b 20 2 1
1 2
2 3
3 4
4 5
5 6
6 7
7 8
8 9
9 10
10 11
11 12
12 13
12 14
14 15
9 16
16 17
17 18
18 19
19 20
